Problem:    com.javasolver.samples.BlendingProblem
Rows:       15
Columns:    13 (13 integer, 0 binary)
Non-zeros:  59
Status:     INTEGER OPTIMAL
Objective:  _OBJ_ = -323200 (MINimum)

   No.   Row name        Activity     Lower bound   Upper bound
------ ------------    ------------- ------------- -------------
     1 _OBJ_                 -323200                             
     2 C1                          0             0             = 
     3 C2                       3000          3000             = 
     4 C3                       2000          2000             = 
     5 C4                       1000          1000             = 
     6 C5                       5000                        5000 
     7 C6                       4750                        5000 
     8 C7                       4250                        5000 
     9 C8                          0             0               
    10 C9                          0                           0 
    11 C10                         0             0               
    12 C11                         0                           0 
    13 C12                      3000             0               
    14 C13                         0                           0 
    15 C14                     14000                       14000 

   No. Column name       Activity     Lower bound   Upper bound
------ ------------    ------------- ------------- -------------
     1 Vi0          *           2850             0         14000 
     2 Vi1          *           1650             0         14000 
     3 Vi2          *            500             0         14000 
     4 Vi3          *            950             0         14000 
     5 Vi4          *           3300             0         14000 
     6 Vi5          *            500             0         14000 
     7 Vi6          *            950             0         14000 
     8 Vi7          *           3300             0         14000 
     9 Vi8          *              0             0         14000 
    10 Vi9          *            175             0         14000 
    11 Vi10         *            625             0         14000 
    12 Vi11         *              0             0         14000 
    13 Vi12         *         323200             0    6.888e+006 

Integer feasibility conditions:

KKT.PE: max.abs.err = 0.00e+000 on row 0
        max.rel.err = 0.00e+000 on row 0
        High quality

KKT.PB: max.abs.err = 0.00e+000 on row 0
        max.rel.err = 0.00e+000 on row 0
        High quality

End of output
